
  22   10
  10   10   10   10   10   10   10   10   10   10

   0   0   0   0   0   0   0   0   0   0   0   2 2 13 
   3  10  10  10  10  10  10  10  10  10  10   1 3 
   2  10  10  10  10  10  10  10  10  10  10   1 4 
   9  10  10  10  10  10  10  10  10  10  10   1 5 
   5  10  10  10  10  10  10  10  10  10  10   1 6 
   8  10  10  10  10  10  10  10  10  10  10   1 7 
   6  10  10  10  10  10  10  10  10  10  10   1 8 
   4  10  10  10  10  10  10  10  10  10  10   1 9 
   7  10  10  10  10  10  10  10  10  10  10   1 10 
   1  10  10  10  10  10  10  10  10  10  10   1 11 
   2  10  10  10  10  10  10  10  10  10  10   1 12 
   9  10  10  10  10  10  10  10  10  10  10   1 14 
   9  10  10  10  10  10  10  10  10  10  10   1 14 
   7  10  10  10  10  10  10  10  10  10  10   1 15 
   5  10  10  10  10  10  10  10  10  10  10   1 16 
  10  10  10  10  10  10  10  10  10  10  10   1 17 
   1  10  10  10  10  10  10  10  10  10  10   1 18 
   6  10  10  10  10  10  10  10  10  10  10   2 21 19 
   5  10  10  10  10  10  10  10  10  10  10   1 20 
  10  10  10  10  10  10  10  10  10  10  10   1 22
   8  10  10  10  10  10  10  10  10  10  10   1 22
   0   0   0   0   0   0   0   0   0   0   0   0 
